(declare-const in2x1 Int)
(declare-const in1x2 Int)
(declare-const in1x0 Int)
(declare-const in0x1 Int)
(declare-const in2x0 Int)
(declare-const in0x2 Int)

(assert (and (and  ( ==  in1x0 in0x1)  ( ==  in2x0 in0x2))  ( ==  in2x1 in1x2)))

(check-sat)
(get-model)